p tw 48 52
1 5
1 41
2 6
2 42
3 7
3 43
4 8
4 44
5 9
6 10
7 11
8 12
9 10
9 13
10 14
11 12
11 15
12 16
13 17
14 19
15 18
16 20
17 18
17 21
18 23
19 20
19 22
20 24
21 25
22 26
23 27
24 28
25 26
25 29
26 30
27 28
27 31
28 32
29 33
30 35
31 34
32 36
33 34
33 37
34 39
35 36
35 38
36 40
37 45
38 46
39 47
40 48
